Minimize
M1 + M2
Subject To
x0,6 + x0,7 = 1
x1,5 + x1,6 = 1
x2,8 = 1
x3,7 = 1
x4,8 = 1
x5,7 = 1
x6,5 = 1
x7,4 = 1
x8,2 + x8,3 + x8,4 + x8,5 + x8,6 + x8,7 + x8,8 = 1
x9,1 + x9,2 + x9,3 + x9,4 + x9,5 + x9,6 + x9,7 = 1
x10,2 + x10,3 + x10,4 + x10,5 + x10,6 + x10,7 + x10,8 = 1
x11,1 + x11,2 + x11,3 + x11,4 + x11,5 + x11,6 + x11,7 = 1
x12,2 + x12,3 = 1
x13,2 + x13,3 + x13,4 + x13,5 + x13,6 + x13,7 + x13,8 = 1
x14,1 + x14,2 = 1
x15,3 = 1
x16,2 = 1
x17,2 + x17,3 + x17,4 + x17,5 + x17,6 + x17,7 + x17,8 = 1
x18,1 = 1
x19,3 = 1
x20,2 = 1
x21,2 + x21,3 + x21,4 + x21,5 + x21,6 + x21,7 + x21,8 = 1
x22,1 = 1
x23,3 = 1
x24,2 = 1
x25,2 + x25,3 + x25,4 + x25,5 + x25,6 + x25,7 + x25,8 = 1
x26,1 = 1
x27,2 + x27,3 + x27,4 + x27,5 = 1
x28,2 + x28,3 + x28,4 + x28,5 + x28,6 + x28,7 + x28,8 = 1
x29,1 + x29,2 + x29,3 + x29,4 = 1
x30,3 + x30,4 + x30,5 = 1
x31,2 + x31,3 + x31,4 = 1
x32,2 + x32,3 + x32,4 + x32,5 + x32,6 + x32,7 + x32,8 = 1
x33,1 + x33,2 + x33,3 = 1
x34,3 + x34,4 + x34,5 = 1
x35,2 + x35,3 + x35,4 = 1
x36,2 + x36,3 + x36,4 + x36,5 + x36,6 + x36,7 + x36,8 = 1
x37,1 + x37,2 + x37,3 = 1
x38,3 + x38,4 + x38,5 = 1
x39,2 + x39,3 + x39,4 = 1
x40,2 + x40,3 + x40,4 + x40,5 + x40,6 + x40,7 + x40,8 = 1
x41,1 + x41,2 + x41,3 = 1
x42,2 + x42,3 + x42,4 + x42,5 + x42,6 + x42,7 + x42,8 = 1
x43,1 + x43,2 + x43,3 + x43,4 + x43,5 + x43,6 + x43,7 = 1
x44,2 + x44,3 + x44,4 + x44,5 + x44,6 + x44,7 + x44,8 = 1
x45,1 + x45,2 + x45,3 + x45,4 + x45,5 + x45,6 + x45,7 = 1
x46,4 + x46,5 + x46,6 + x46,7 + x46,8 = 1
x47,3 + x47,4 + x47,5 + x47,6 + x47,7 = 1
x48,2 + x48,3 + x48,4 + x48,5 + x48,6 = 1
x49,2 + x49,3 + x49,4 + x49,5 + x49,6 + x49,7 + x49,8 = 1
x50,1 + x50,2 + x50,3 + x50,4 + x50,5 = 1
x51,5 + x51,6 + x51,7 + x51,8 = 1
x52,4 + x52,5 + x52,6 + x52,7 = 1
x53,3 + x53,4 + x53,5 + x53,6 = 1
x54,2 + x54,3 + x54,4 + x54,5 = 1
x55,2 + x55,3 + x55,4 + x55,5 + x55,6 + x55,7 + x55,8 = 1
x56,1 + x56,2 + x56,3 + x56,4 = 1
x57,5 + x57,6 + x57,7 + x57,8 = 1
x58,4 + x58,5 + x58,6 + x58,7 = 1
x59,3 + x59,4 + x59,5 + x59,6 = 1
x60,2 + x60,3 + x60,4 + x60,5 = 1
x61,2 + x61,3 + x61,4 + x61,5 + x61,6 + x61,7 + x61,8 = 1
x62,1 + x62,2 + x62,3 + x62,4 = 1
x63,5 + x63,6 + x63,7 + x63,8 = 1
x64,4 + x64,5 + x64,6 + x64,7 = 1
x65,3 + x65,4 + x65,5 + x65,6 = 1
x66,2 + x66,3 + x66,4 + x66,5 = 1
x67,2 + x67,3 + x67,4 + x67,5 + x67,6 + x67,7 + x67,8 = 1
x68,1 + x68,2 + x68,3 + x68,4 = 1
x69,4 + x69,5 + x69,6 + x69,7 + x69,8 = 1
x70,3 + x70,4 + x70,5 + x70,6 + x70,7 = 1
x71,2 + x71,3 + x71,4 + x71,5 + x71,6 = 1
x72,2 + x72,3 + x72,4 + x72,5 + x72,6 + x72,7 + x72,8 = 1
x73,1 + x73,2 + x73,3 + x73,4 + x73,5 = 1
x74,5 + x74,6 + x74,7 + x74,8 = 1
x75,4 + x75,5 + x75,6 + x75,7 = 1
x76,3 + x76,4 + x76,5 + x76,6 = 1
x77,2 + x77,3 + x77,4 + x77,5 = 1
x78,2 + x78,3 + x78,4 + x78,5 + x78,6 + x78,7 + x78,8 = 1
x79,1 + x79,2 + x79,3 + x79,4 = 1
x80,5 + x80,6 + x80,7 + x80,8 = 1
x81,4 + x81,5 + x81,6 + x81,7 = 1
x82,3 + x82,4 + x82,5 + x82,6 = 1
x83,2 + x83,3 + x83,4 + x83,5 = 1
x84,2 + x84,3 + x84,4 + x84,5 + x84,6 + x84,7 + x84,8 = 1
x85,1 + x85,2 + x85,3 + x85,4 = 1
x86,5 + x86,6 + x86,7 + x86,8 = 1
x87,4 + x87,5 + x87,6 + x87,7 = 1
x88,3 + x88,4 + x88,5 + x88,6 = 1
x89,2 + x89,3 + x89,4 + x89,5 = 1
x90,2 + x90,3 + x90,4 + x90,5 + x90,6 + x90,7 + x90,8 = 1
x91,1 + x91,2 + x91,3 + x91,4 = 1
x92,2 + x92,3 + x92,4 + x92,5 + x92,6 + x92,7 + x92,8 = 1
x93,1 + x93,2 + x93,3 + x93,4 + x93,5 + x93,6 + x93,7 = 1
x94,2 + x94,3 + x94,4 + x94,5 + x94,6 + x94,7 + x94,8 = 1
x95,1 + x95,2 + x95,3 + x95,4 + x95,5 + x95,6 + x95,7 = 1
x96,2 + x96,3 + x96,4 + x96,5 + x96,6 + x96,7 + x96,8 = 1
x97,2 + x97,3 + x97,4 + x97,5 + x97,6 + x97,7 + x97,8 = 1
x98,1 + x98,2 + x98,3 + x98,4 + x98,5 + x98,6 + x98,7 = 1
x99,3 + x99,4 + x99,5 + x99,6 + x99,7 + x99,8 = 1
x100,2 + x100,3 + x100,4 + x100,5 + x100,6 + x100,7 = 1
x101,2 + x101,3 + x101,4 + x101,5 + x101,6 + x101,7 + x101,8 = 1
x102,1 + x102,2 + x102,3 + x102,4 + x102,5 + x102,6 = 1
x103,3 + x103,4 + x103,5 + x103,6 + x103,7 + x103,8 = 1
x104,2 + x104,3 + x104,4 + x104,5 + x104,6 + x104,7 = 1
x105,1 + x105,2 + x105,3 + x105,4 + x105,5 + x105,6 = 1
x9,1 + x11,1 + x14,1 + x18,1 + x22,1 + x26,1 + x29,1 + x33,1 + x37,1 + x41,1 + x43,1 + x45,1 + x50,1 + x56,1 + x62,1 + x68,1 + x73,1 + x79,1 + x85,1 + x91,1 + x93,1 + x95,1 + x98,1 + x102,1 + x105,1 - M2 <= 0
x8,2 + x9,2 + x10,2 + x11,2 + x12,2 + x13,2 + x14,2 + x16,2 + x17,2 + x20,2 + x21,2 + x24,2 + x25,2 + x27,2 + x28,2 + x29,2 + x31,2 + x32,2 + x33,2 + x35,2 + x36,2 + x37,2 + x39,2 + x40,2 + x41,2 + x42,2 + x43,2 + x44,2 + x45,2 + x48,2 + x49,2 + x50,2 + x54,2 + x55,2 + x56,2 + x60,2 + x61,2 + x62,2 + x66,2 + x67,2 + x68,2 + x71,2 + x72,2 + x73,2 + x77,2 + x78,2 + x79,2 + x83,2 + x84,2 + x85,2 + x89,2 + x90,2 + x91,2 + x92,2 + x93,2 + x94,2 + x95,2 + x96,2 + x97,2 + x98,2 + x100,2 + x101,2 + x102,2 + x104,2 + x105,2 - M2 <= 0
x8,3 + x9,3 + x10,3 + x11,3 + x12,3 + x13,3 + x15,3 + x17,3 + x19,3 + x21,3 + x23,3 + x25,3 + x27,3 + x28,3 + x29,3 + x30,3 + x31,3 + x32,3 + x33,3 + x34,3 + x35,3 + x36,3 + x37,3 + x38,3 + x39,3 + x40,3 + x41,3 + x42,3 + x43,3 + x44,3 + x45,3 + x47,3 + x48,3 + x49,3 + x50,3 + x53,3 + x54,3 + x55,3 + x56,3 + x59,3 + x60,3 + x61,3 + x62,3 + x65,3 + x66,3 + x67,3 + x68,3 + x70,3 + x71,3 + x72,3 + x73,3 + x76,3 + x77,3 + x78,3 + x79,3 + x82,3 + x83,3 + x84,3 + x85,3 + x88,3 + x89,3 + x90,3 + x91,3 + x92,3 + x93,3 + x94,3 + x95,3 + x96,3 + x97,3 + x98,3 + x99,3 + x100,3 + x101,3 + x102,3 + x103,3 + x104,3 + x105,3 - M2 <= 0
x7,4 + x8,4 + x9,4 + x10,4 + x11,4 + x13,4 + x17,4 + x21,4 + x25,4 + x27,4 + x28,4 + x29,4 + x30,4 + x31,4 + x32,4 + x34,4 + x35,4 + x36,4 + x38,4 + x39,4 + x40,4 + x42,4 + x43,4 + x44,4 + x45,4 + x46,4 + x47,4 + x48,4 + x49,4 + x50,4 + x52,4 + x53,4 + x54,4 + x55,4 + x56,4 + x58,4 + x59,4 + x60,4 + x61,4 + x62,4 + x64,4 + x65,4 + x66,4 + x67,4 + x68,4 + x69,4 + x70,4 + x71,4 + x72,4 + x73,4 + x75,4 + x76,4 + x77,4 + x78,4 + x79,4 + x81,4 + x82,4 + x83,4 + x84,4 + x85,4 + x87,4 + x88,4 + x89,4 + x90,4 + x91,4 + x92,4 + x93,4 + x94,4 + x95,4 + x96,4 + x97,4 + x98,4 + x99,4 + x100,4 + x101,4 + x102,4 + x103,4 + x104,4 + x105,4 - M2 <= 0
x1,5 + x8,5 + x9,5 + x10,5 + x11,5 + x13,5 + x17,5 + x21,5 + x25,5 + x27,5 + x28,5 + x30,5 + x32,5 + x34,5 + x36,5 + x38,5 + x40,5 + x42,5 + x43,5 + x44,5 + x45,5 + x46,5 + x47,5 + x48,5 + x49,5 + x50,5 + x51,5 + x52,5 + x53,5 + x54,5 + x55,5 + x57,5 + x58,5 + x59,5 + x60,5 + x61,5 + x63,5 + x64,5 + x65,5 + x66,5 + x67,5 + x69,5 + x70,5 + x71,5 + x72,5 + x73,5 + x74,5 + x75,5 + x76,5 + x77,5 + x78,5 + x80,5 + x81,5 + x82,5 + x83,5 + x84,5 + x86,5 + x87,5 + x88,5 + x89,5 + x90,5 + x92,5 + x93,5 + x94,5 + x95,5 + x96,5 + x97,5 + x98,5 + x99,5 + x100,5 + x101,5 + x102,5 + x103,5 + x104,5 + x105,5 - M2 <= 0
x1,6 + x8,6 + x9,6 + x10,6 + x11,6 + x13,6 + x17,6 + x21,6 + x25,6 + x28,6 + x32,6 + x36,6 + x40,6 + x42,6 + x43,6 + x44,6 + x45,6 + x46,6 + x47,6 + x48,6 + x49,6 + x51,6 + x52,6 + x53,6 + x55,6 + x57,6 + x58,6 + x59,6 + x61,6 + x63,6 + x64,6 + x65,6 + x67,6 + x69,6 + x70,6 + x71,6 + x72,6 + x74,6 + x75,6 + x76,6 + x78,6 + x80,6 + x81,6 + x82,6 + x84,6 + x86,6 + x87,6 + x88,6 + x90,6 + x92,6 + x93,6 + x94,6 + x95,6 + x96,6 + x97,6 + x98,6 + x99,6 + x100,6 + x101,6 + x102,6 + x103,6 + x104,6 + x105,6 - M2 <= 0
x0,6 + x0,5 + x6,6 + x6,5 - M1 <= 0
x3,7 + x5,7 + x8,7 + x9,7 + x10,7 + x11,7 + x13,7 + x17,7 + x21,7 + x25,7 + x28,7 + x32,7 + x36,7 + x40,7 + x42,7 + x43,7 + x44,7 + x45,7 + x46,7 + x47,7 + x49,7 + x51,7 + x52,7 + x55,7 + x57,7 + x58,7 + x61,7 + x63,7 + x64,7 + x67,7 + x69,7 + x70,7 + x72,7 + x74,7 + x75,7 + x78,7 + x80,7 + x81,7 + x84,7 + x86,7 + x87,7 + x90,7 + x92,7 + x93,7 + x94,7 + x95,7 + x96,7 + x97,7 + x98,7 + x99,7 + x100,7 + x101,7 + x103,7 + x104,7 - M2 <= 0
x2,8 + x4,8 + x8,8 + x10,8 + x13,8 + x17,8 + x21,8 + x25,8 + x28,8 + x32,8 + x36,8 + x40,8 + x42,8 + x44,8 + x46,8 + x49,8 + x51,8 + x55,8 + x57,8 + x61,8 + x63,8 + x67,8 + x69,8 + x72,8 + x74,8 + x78,8 + x80,8 + x84,8 + x86,8 + x90,8 + x92,8 + x94,8 + x96,8 + x97,8 + x99,8 + x101,8 + x103,8 - M2 <= 0
5 x1,5 + 6 x1,6 - 6 x0,6 - 7 x0,7 <= -1
7 x3,7 - 8 x2,8 <= -1
7 x5,7 - 8 x4,8 <= -1
5 x6,5 - 7 x3,7 <= -2
5 x6,5 - 7 x5,7 <= -2
4 x7,4 - 5 x1,5 - 6 x1,6 <= -1
4 x7,4 - 5 x6,5 <= -1
1 x9,1 + 2 x9,2 + 3 x9,3 + 4 x9,4 + 5 x9,5 + 6 x9,6 + 7 x9,7 - 2 x8,2 - 3 x8,3 - 4 x8,4 - 5 x8,5 - 6 x8,6 - 7 x8,7 - 8 x8,8 <= -1
1 x11,1 + 2 x11,2 + 3 x11,3 + 4 x11,4 + 5 x11,5 + 6 x11,6 + 7 x11,7 - 2 x10,2 - 3 x10,3 - 4 x10,4 - 5 x10,5 - 6 x10,6 - 7 x10,7 - 8 x10,8 <= -1
2 x12,2 + 3 x12,3 - 4 x7,4 <= -1
1 x14,1 + 2 x14,2 - 2 x12,2 - 3 x12,3 <= -1
1 x14,1 + 2 x14,2 - 2 x13,2 - 3 x13,3 - 4 x13,4 - 5 x13,5 - 6 x13,6 - 7 x13,7 - 8 x13,8 <= -1
3 x15,3 - 4 x7,4 <= -1
2 x16,2 - 3 x15,3 <= -1
1 x18,1 - 2 x16,2 <= -1
1 x18,1 - 2 x17,2 - 3 x17,3 - 4 x17,4 - 5 x17,5 - 6 x17,6 - 7 x17,7 - 8 x17,8 <= -1
3 x19,3 - 4 x7,4 <= -1
2 x20,2 - 3 x19,3 <= -1
1 x22,1 - 2 x20,2 <= -1
1 x22,1 - 2 x21,2 - 3 x21,3 - 4 x21,4 - 5 x21,5 - 6 x21,6 - 7 x21,7 - 8 x21,8 <= -1
3 x23,3 - 4 x7,4 <= -1
2 x24,2 - 3 x23,3 <= -1
1 x26,1 - 2 x24,2 <= -1
1 x26,1 - 2 x25,2 - 3 x25,3 - 4 x25,4 - 5 x25,5 - 6 x25,6 - 7 x25,7 - 8 x25,8 <= -1
2 x27,2 + 3 x27,3 + 4 x27,4 + 5 x27,5 - 5 x1,5 - 6 x1,6 <= -1
1 x29,1 + 2 x29,2 + 3 x29,3 + 4 x29,4 - 2 x27,2 - 3 x27,3 - 4 x27,4 - 5 x27,5 <= -1
1 x29,1 + 2 x29,2 + 3 x29,3 + 4 x29,4 - 2 x28,2 - 3 x28,3 - 4 x28,4 - 5 x28,5 - 6 x28,6 - 7 x28,7 - 8 x28,8 <= -1
3 x30,3 + 4 x30,4 + 5 x30,5 - 5 x1,5 - 6 x1,6 <= -1
2 x31,2 + 3 x31,3 + 4 x31,4 - 3 x30,3 - 4 x30,4 - 5 x30,5 <= -1
1 x33,1 + 2 x33,2 + 3 x33,3 - 2 x31,2 - 3 x31,3 - 4 x31,4 <= -1
1 x33,1 + 2 x33,2 + 3 x33,3 - 2 x32,2 - 3 x32,3 - 4 x32,4 - 5 x32,5 - 6 x32,6 - 7 x32,7 - 8 x32,8 <= -1
3 x34,3 + 4 x34,4 + 5 x34,5 - 5 x1,5 - 6 x1,6 <= -1
2 x35,2 + 3 x35,3 + 4 x35,4 - 3 x34,3 - 4 x34,4 - 5 x34,5 <= -1
1 x37,1 + 2 x37,2 + 3 x37,3 - 2 x35,2 - 3 x35,3 - 4 x35,4 <= -1
1 x37,1 + 2 x37,2 + 3 x37,3 - 2 x36,2 - 3 x36,3 - 4 x36,4 - 5 x36,5 - 6 x36,6 - 7 x36,7 - 8 x36,8 <= -1
3 x38,3 + 4 x38,4 + 5 x38,5 - 5 x1,5 - 6 x1,6 <= -1
2 x39,2 + 3 x39,3 + 4 x39,4 - 3 x38,3 - 4 x38,4 - 5 x38,5 <= -1
1 x41,1 + 2 x41,2 + 3 x41,3 - 2 x39,2 - 3 x39,3 - 4 x39,4 <= -1
1 x41,1 + 2 x41,2 + 3 x41,3 - 2 x40,2 - 3 x40,3 - 4 x40,4 - 5 x40,5 - 6 x40,6 - 7 x40,7 - 8 x40,8 <= -1
1 x43,1 + 2 x43,2 + 3 x43,3 + 4 x43,4 + 5 x43,5 + 6 x43,6 + 7 x43,7 - 2 x42,2 - 3 x42,3 - 4 x42,4 - 5 x42,5 - 6 x42,6 - 7 x42,7 - 8 x42,8 <= -1
1 x45,1 + 2 x45,2 + 3 x45,3 + 4 x45,4 + 5 x45,5 + 6 x45,6 + 7 x45,7 - 2 x44,2 - 3 x44,3 - 4 x44,4 - 5 x44,5 - 6 x44,6 - 7 x44,7 - 8 x44,8 <= -1
3 x47,3 + 4 x47,4 + 5 x47,5 + 6 x47,6 + 7 x47,7 - 4 x46,4 - 5 x46,5 - 6 x46,6 - 7 x46,7 - 8 x46,8 <= -1
2 x48,2 + 3 x48,3 + 4 x48,4 + 5 x48,5 + 6 x48,6 - 3 x47,3 - 4 x47,4 - 5 x47,5 - 6 x47,6 - 7 x47,7 <= -1
1 x50,1 + 2 x50,2 + 3 x50,3 + 4 x50,4 + 5 x50,5 - 2 x48,2 - 3 x48,3 - 4 x48,4 - 5 x48,5 - 6 x48,6 <= -1
1 x50,1 + 2 x50,2 + 3 x50,3 + 4 x50,4 + 5 x50,5 - 2 x49,2 - 3 x49,3 - 4 x49,4 - 5 x49,5 - 6 x49,6 - 7 x49,7 - 8 x49,8 <= -1
4 x52,4 + 5 x52,5 + 6 x52,6 + 7 x52,7 - 5 x51,5 - 6 x51,6 - 7 x51,7 - 8 x51,8 <= -1
3 x53,3 + 4 x53,4 + 5 x53,5 + 6 x53,6 - 4 x52,4 - 5 x52,5 - 6 x52,6 - 7 x52,7 <= -1
2 x54,2 + 3 x54,3 + 4 x54,4 + 5 x54,5 - 3 x53,3 - 4 x53,4 - 5 x53,5 - 6 x53,6 <= -1
1 x56,1 + 2 x56,2 + 3 x56,3 + 4 x56,4 - 2 x54,2 - 3 x54,3 - 4 x54,4 - 5 x54,5 <= -1
1 x56,1 + 2 x56,2 + 3 x56,3 + 4 x56,4 - 2 x55,2 - 3 x55,3 - 4 x55,4 - 5 x55,5 - 6 x55,6 - 7 x55,7 - 8 x55,8 <= -1
4 x58,4 + 5 x58,5 + 6 x58,6 + 7 x58,7 - 5 x57,5 - 6 x57,6 - 7 x57,7 - 8 x57,8 <= -1
3 x59,3 + 4 x59,4 + 5 x59,5 + 6 x59,6 - 4 x58,4 - 5 x58,5 - 6 x58,6 - 7 x58,7 <= -1
2 x60,2 + 3 x60,3 + 4 x60,4 + 5 x60,5 - 3 x59,3 - 4 x59,4 - 5 x59,5 - 6 x59,6 <= -1
1 x62,1 + 2 x62,2 + 3 x62,3 + 4 x62,4 - 2 x60,2 - 3 x60,3 - 4 x60,4 - 5 x60,5 <= -1
1 x62,1 + 2 x62,2 + 3 x62,3 + 4 x62,4 - 2 x61,2 - 3 x61,3 - 4 x61,4 - 5 x61,5 - 6 x61,6 - 7 x61,7 - 8 x61,8 <= -1
4 x64,4 + 5 x64,5 + 6 x64,6 + 7 x64,7 - 5 x63,5 - 6 x63,6 - 7 x63,7 - 8 x63,8 <= -1
3 x65,3 + 4 x65,4 + 5 x65,5 + 6 x65,6 - 4 x64,4 - 5 x64,5 - 6 x64,6 - 7 x64,7 <= -1
2 x66,2 + 3 x66,3 + 4 x66,4 + 5 x66,5 - 3 x65,3 - 4 x65,4 - 5 x65,5 - 6 x65,6 <= -1
1 x68,1 + 2 x68,2 + 3 x68,3 + 4 x68,4 - 2 x66,2 - 3 x66,3 - 4 x66,4 - 5 x66,5 <= -1
1 x68,1 + 2 x68,2 + 3 x68,3 + 4 x68,4 - 2 x67,2 - 3 x67,3 - 4 x67,4 - 5 x67,5 - 6 x67,6 - 7 x67,7 - 8 x67,8 <= -1
3 x70,3 + 4 x70,4 + 5 x70,5 + 6 x70,6 + 7 x70,7 - 4 x69,4 - 5 x69,5 - 6 x69,6 - 7 x69,7 - 8 x69,8 <= -1
2 x71,2 + 3 x71,3 + 4 x71,4 + 5 x71,5 + 6 x71,6 - 3 x70,3 - 4 x70,4 - 5 x70,5 - 6 x70,6 - 7 x70,7 <= -1
1 x73,1 + 2 x73,2 + 3 x73,3 + 4 x73,4 + 5 x73,5 - 2 x71,2 - 3 x71,3 - 4 x71,4 - 5 x71,5 - 6 x71,6 <= -1
1 x73,1 + 2 x73,2 + 3 x73,3 + 4 x73,4 + 5 x73,5 - 2 x72,2 - 3 x72,3 - 4 x72,4 - 5 x72,5 - 6 x72,6 - 7 x72,7 - 8 x72,8 <= -1
4 x75,4 + 5 x75,5 + 6 x75,6 + 7 x75,7 - 5 x74,5 - 6 x74,6 - 7 x74,7 - 8 x74,8 <= -1
3 x76,3 + 4 x76,4 + 5 x76,5 + 6 x76,6 - 4 x75,4 - 5 x75,5 - 6 x75,6 - 7 x75,7 <= -1
2 x77,2 + 3 x77,3 + 4 x77,4 + 5 x77,5 - 3 x76,3 - 4 x76,4 - 5 x76,5 - 6 x76,6 <= -1
1 x79,1 + 2 x79,2 + 3 x79,3 + 4 x79,4 - 2 x77,2 - 3 x77,3 - 4 x77,4 - 5 x77,5 <= -1
1 x79,1 + 2 x79,2 + 3 x79,3 + 4 x79,4 - 2 x78,2 - 3 x78,3 - 4 x78,4 - 5 x78,5 - 6 x78,6 - 7 x78,7 - 8 x78,8 <= -1
4 x81,4 + 5 x81,5 + 6 x81,6 + 7 x81,7 - 5 x80,5 - 6 x80,6 - 7 x80,7 - 8 x80,8 <= -1
3 x82,3 + 4 x82,4 + 5 x82,5 + 6 x82,6 - 4 x81,4 - 5 x81,5 - 6 x81,6 - 7 x81,7 <= -1
2 x83,2 + 3 x83,3 + 4 x83,4 + 5 x83,5 - 3 x82,3 - 4 x82,4 - 5 x82,5 - 6 x82,6 <= -1
1 x85,1 + 2 x85,2 + 3 x85,3 + 4 x85,4 - 2 x83,2 - 3 x83,3 - 4 x83,4 - 5 x83,5 <= -1
1 x85,1 + 2 x85,2 + 3 x85,3 + 4 x85,4 - 2 x84,2 - 3 x84,3 - 4 x84,4 - 5 x84,5 - 6 x84,6 - 7 x84,7 - 8 x84,8 <= -1
4 x87,4 + 5 x87,5 + 6 x87,6 + 7 x87,7 - 5 x86,5 - 6 x86,6 - 7 x86,7 - 8 x86,8 <= -1
3 x88,3 + 4 x88,4 + 5 x88,5 + 6 x88,6 - 4 x87,4 - 5 x87,5 - 6 x87,6 - 7 x87,7 <= -1
2 x89,2 + 3 x89,3 + 4 x89,4 + 5 x89,5 - 3 x88,3 - 4 x88,4 - 5 x88,5 - 6 x88,6 <= -1
1 x91,1 + 2 x91,2 + 3 x91,3 + 4 x91,4 - 2 x89,2 - 3 x89,3 - 4 x89,4 - 5 x89,5 <= -1
1 x91,1 + 2 x91,2 + 3 x91,3 + 4 x91,4 - 2 x90,2 - 3 x90,3 - 4 x90,4 - 5 x90,5 - 6 x90,6 - 7 x90,7 - 8 x90,8 <= -1
1 x93,1 + 2 x93,2 + 3 x93,3 + 4 x93,4 + 5 x93,5 + 6 x93,6 + 7 x93,7 - 2 x92,2 - 3 x92,3 - 4 x92,4 - 5 x92,5 - 6 x92,6 - 7 x92,7 - 8 x92,8 <= -1
1 x95,1 + 2 x95,2 + 3 x95,3 + 4 x95,4 + 5 x95,5 + 6 x95,6 + 7 x95,7 - 2 x94,2 - 3 x94,3 - 4 x94,4 - 5 x94,5 - 6 x94,6 - 7 x94,7 - 8 x94,8 <= -1
1 x98,1 + 2 x98,2 + 3 x98,3 + 4 x98,4 + 5 x98,5 + 6 x98,6 + 7 x98,7 - 2 x96,2 - 3 x96,3 - 4 x96,4 - 5 x96,5 - 6 x96,6 - 7 x96,7 - 8 x96,8 <= -1
1 x98,1 + 2 x98,2 + 3 x98,3 + 4 x98,4 + 5 x98,5 + 6 x98,6 + 7 x98,7 - 2 x97,2 - 3 x97,3 - 4 x97,4 - 5 x97,5 - 6 x97,6 - 7 x97,7 - 8 x97,8 <= -1
2 x100,2 + 3 x100,3 + 4 x100,4 + 5 x100,5 + 6 x100,6 + 7 x100,7 - 3 x99,3 - 4 x99,4 - 5 x99,5 - 6 x99,6 - 7 x99,7 - 8 x99,8 <= -1
1 x102,1 + 2 x102,2 + 3 x102,3 + 4 x102,4 + 5 x102,5 + 6 x102,6 - 2 x100,2 - 3 x100,3 - 4 x100,4 - 5 x100,5 - 6 x100,6 - 7 x100,7 <= -1
1 x102,1 + 2 x102,2 + 3 x102,3 + 4 x102,4 + 5 x102,5 + 6 x102,6 - 2 x101,2 - 3 x101,3 - 4 x101,4 - 5 x101,5 - 6 x101,6 - 7 x101,7 - 8 x101,8 <= -1
2 x104,2 + 3 x104,3 + 4 x104,4 + 5 x104,5 + 6 x104,6 + 7 x104,7 - 3 x103,3 - 4 x103,4 - 5 x103,5 - 6 x103,6 - 7 x103,7 - 8 x103,8 <= -1
1 x105,1 + 2 x105,2 + 3 x105,3 + 4 x105,4 + 5 x105,5 + 6 x105,6 - 2 x104,2 - 3 x104,3 - 4 x104,4 - 5 x104,5 - 6 x104,6 - 7 x104,7 <= -1
Bounds
0 <= x0,6 <= 1
0 <= x0,7 <= 1
0 <= x1,5 <= 1
0 <= x1,6 <= 1
0 <= x2,8 <= 1
0 <= x3,7 <= 1
0 <= x4,8 <= 1
0 <= x5,7 <= 1
0 <= x6,5 <= 1
0 <= x7,4 <= 1
0 <= x8,2 <= 1
0 <= x8,3 <= 1
0 <= x8,4 <= 1
0 <= x8,5 <= 1
0 <= x8,6 <= 1
0 <= x8,7 <= 1
0 <= x8,8 <= 1
0 <= x9,1 <= 1
0 <= x9,2 <= 1
0 <= x9,3 <= 1
0 <= x9,4 <= 1
0 <= x9,5 <= 1
0 <= x9,6 <= 1
0 <= x9,7 <= 1
0 <= x10,2 <= 1
0 <= x10,3 <= 1
0 <= x10,4 <= 1
0 <= x10,5 <= 1
0 <= x10,6 <= 1
0 <= x10,7 <= 1
0 <= x10,8 <= 1
0 <= x11,1 <= 1
0 <= x11,2 <= 1
0 <= x11,3 <= 1
0 <= x11,4 <= 1
0 <= x11,5 <= 1
0 <= x11,6 <= 1
0 <= x11,7 <= 1
0 <= x12,2 <= 1
0 <= x12,3 <= 1
0 <= x13,2 <= 1
0 <= x13,3 <= 1
0 <= x13,4 <= 1
0 <= x13,5 <= 1
0 <= x13,6 <= 1
0 <= x13,7 <= 1
0 <= x13,8 <= 1
0 <= x14,1 <= 1
0 <= x14,2 <= 1
0 <= x15,3 <= 1
0 <= x16,2 <= 1
0 <= x17,2 <= 1
0 <= x17,3 <= 1
0 <= x17,4 <= 1
0 <= x17,5 <= 1
0 <= x17,6 <= 1
0 <= x17,7 <= 1
0 <= x17,8 <= 1
0 <= x18,1 <= 1
0 <= x19,3 <= 1
0 <= x20,2 <= 1
0 <= x21,2 <= 1
0 <= x21,3 <= 1
0 <= x21,4 <= 1
0 <= x21,5 <= 1
0 <= x21,6 <= 1
0 <= x21,7 <= 1
0 <= x21,8 <= 1
0 <= x22,1 <= 1
0 <= x23,3 <= 1
0 <= x24,2 <= 1
0 <= x25,2 <= 1
0 <= x25,3 <= 1
0 <= x25,4 <= 1
0 <= x25,5 <= 1
0 <= x25,6 <= 1
0 <= x25,7 <= 1
0 <= x25,8 <= 1
0 <= x26,1 <= 1
0 <= x27,2 <= 1
0 <= x27,3 <= 1
0 <= x27,4 <= 1
0 <= x27,5 <= 1
0 <= x28,2 <= 1
0 <= x28,3 <= 1
0 <= x28,4 <= 1
0 <= x28,5 <= 1
0 <= x28,6 <= 1
0 <= x28,7 <= 1
0 <= x28,8 <= 1
0 <= x29,1 <= 1
0 <= x29,2 <= 1
0 <= x29,3 <= 1
0 <= x29,4 <= 1
0 <= x30,3 <= 1
0 <= x30,4 <= 1
0 <= x30,5 <= 1
0 <= x31,2 <= 1
0 <= x31,3 <= 1
0 <= x31,4 <= 1
0 <= x32,2 <= 1
0 <= x32,3 <= 1
0 <= x32,4 <= 1
0 <= x32,5 <= 1
0 <= x32,6 <= 1
0 <= x32,7 <= 1
0 <= x32,8 <= 1
0 <= x33,1 <= 1
0 <= x33,2 <= 1
0 <= x33,3 <= 1
0 <= x34,3 <= 1
0 <= x34,4 <= 1
0 <= x34,5 <= 1
0 <= x35,2 <= 1
0 <= x35,3 <= 1
0 <= x35,4 <= 1
0 <= x36,2 <= 1
0 <= x36,3 <= 1
0 <= x36,4 <= 1
0 <= x36,5 <= 1
0 <= x36,6 <= 1
0 <= x36,7 <= 1
0 <= x36,8 <= 1
0 <= x37,1 <= 1
0 <= x37,2 <= 1
0 <= x37,3 <= 1
0 <= x38,3 <= 1
0 <= x38,4 <= 1
0 <= x38,5 <= 1
0 <= x39,2 <= 1
0 <= x39,3 <= 1
0 <= x39,4 <= 1
0 <= x40,2 <= 1
0 <= x40,3 <= 1
0 <= x40,4 <= 1
0 <= x40,5 <= 1
0 <= x40,6 <= 1
0 <= x40,7 <= 1
0 <= x40,8 <= 1
0 <= x41,1 <= 1
0 <= x41,2 <= 1
0 <= x41,3 <= 1
0 <= x42,2 <= 1
0 <= x42,3 <= 1
0 <= x42,4 <= 1
0 <= x42,5 <= 1
0 <= x42,6 <= 1
0 <= x42,7 <= 1
0 <= x42,8 <= 1
0 <= x43,1 <= 1
0 <= x43,2 <= 1
0 <= x43,3 <= 1
0 <= x43,4 <= 1
0 <= x43,5 <= 1
0 <= x43,6 <= 1
0 <= x43,7 <= 1
0 <= x44,2 <= 1
0 <= x44,3 <= 1
0 <= x44,4 <= 1
0 <= x44,5 <= 1
0 <= x44,6 <= 1
0 <= x44,7 <= 1
0 <= x44,8 <= 1
0 <= x45,1 <= 1
0 <= x45,2 <= 1
0 <= x45,3 <= 1
0 <= x45,4 <= 1
0 <= x45,5 <= 1
0 <= x45,6 <= 1
0 <= x45,7 <= 1
0 <= x46,4 <= 1
0 <= x46,5 <= 1
0 <= x46,6 <= 1
0 <= x46,7 <= 1
0 <= x46,8 <= 1
0 <= x47,3 <= 1
0 <= x47,4 <= 1
0 <= x47,5 <= 1
0 <= x47,6 <= 1
0 <= x47,7 <= 1
0 <= x48,2 <= 1
0 <= x48,3 <= 1
0 <= x48,4 <= 1
0 <= x48,5 <= 1
0 <= x48,6 <= 1
0 <= x49,2 <= 1
0 <= x49,3 <= 1
0 <= x49,4 <= 1
0 <= x49,5 <= 1
0 <= x49,6 <= 1
0 <= x49,7 <= 1
0 <= x49,8 <= 1
0 <= x50,1 <= 1
0 <= x50,2 <= 1
0 <= x50,3 <= 1
0 <= x50,4 <= 1
0 <= x50,5 <= 1
0 <= x51,5 <= 1
0 <= x51,6 <= 1
0 <= x51,7 <= 1
0 <= x51,8 <= 1
0 <= x52,4 <= 1
0 <= x52,5 <= 1
0 <= x52,6 <= 1
0 <= x52,7 <= 1
0 <= x53,3 <= 1
0 <= x53,4 <= 1
0 <= x53,5 <= 1
0 <= x53,6 <= 1
0 <= x54,2 <= 1
0 <= x54,3 <= 1
0 <= x54,4 <= 1
0 <= x54,5 <= 1
0 <= x55,2 <= 1
0 <= x55,3 <= 1
0 <= x55,4 <= 1
0 <= x55,5 <= 1
0 <= x55,6 <= 1
0 <= x55,7 <= 1
0 <= x55,8 <= 1
0 <= x56,1 <= 1
0 <= x56,2 <= 1
0 <= x56,3 <= 1
0 <= x56,4 <= 1
0 <= x57,5 <= 1
0 <= x57,6 <= 1
0 <= x57,7 <= 1
0 <= x57,8 <= 1
0 <= x58,4 <= 1
0 <= x58,5 <= 1
0 <= x58,6 <= 1
0 <= x58,7 <= 1
0 <= x59,3 <= 1
0 <= x59,4 <= 1
0 <= x59,5 <= 1
0 <= x59,6 <= 1
0 <= x60,2 <= 1
0 <= x60,3 <= 1
0 <= x60,4 <= 1
0 <= x60,5 <= 1
0 <= x61,2 <= 1
0 <= x61,3 <= 1
0 <= x61,4 <= 1
0 <= x61,5 <= 1
0 <= x61,6 <= 1
0 <= x61,7 <= 1
0 <= x61,8 <= 1
0 <= x62,1 <= 1
0 <= x62,2 <= 1
0 <= x62,3 <= 1
0 <= x62,4 <= 1
0 <= x63,5 <= 1
0 <= x63,6 <= 1
0 <= x63,7 <= 1
0 <= x63,8 <= 1
0 <= x64,4 <= 1
0 <= x64,5 <= 1
0 <= x64,6 <= 1
0 <= x64,7 <= 1
0 <= x65,3 <= 1
0 <= x65,4 <= 1
0 <= x65,5 <= 1
0 <= x65,6 <= 1
0 <= x66,2 <= 1
0 <= x66,3 <= 1
0 <= x66,4 <= 1
0 <= x66,5 <= 1
0 <= x67,2 <= 1
0 <= x67,3 <= 1
0 <= x67,4 <= 1
0 <= x67,5 <= 1
0 <= x67,6 <= 1
0 <= x67,7 <= 1
0 <= x67,8 <= 1
0 <= x68,1 <= 1
0 <= x68,2 <= 1
0 <= x68,3 <= 1
0 <= x68,4 <= 1
0 <= x69,4 <= 1
0 <= x69,5 <= 1
0 <= x69,6 <= 1
0 <= x69,7 <= 1
0 <= x69,8 <= 1
0 <= x70,3 <= 1
0 <= x70,4 <= 1
0 <= x70,5 <= 1
0 <= x70,6 <= 1
0 <= x70,7 <= 1
0 <= x71,2 <= 1
0 <= x71,3 <= 1
0 <= x71,4 <= 1
0 <= x71,5 <= 1
0 <= x71,6 <= 1
0 <= x72,2 <= 1
0 <= x72,3 <= 1
0 <= x72,4 <= 1
0 <= x72,5 <= 1
0 <= x72,6 <= 1
0 <= x72,7 <= 1
0 <= x72,8 <= 1
0 <= x73,1 <= 1
0 <= x73,2 <= 1
0 <= x73,3 <= 1
0 <= x73,4 <= 1
0 <= x73,5 <= 1
0 <= x74,5 <= 1
0 <= x74,6 <= 1
0 <= x74,7 <= 1
0 <= x74,8 <= 1
0 <= x75,4 <= 1
0 <= x75,5 <= 1
0 <= x75,6 <= 1
0 <= x75,7 <= 1
0 <= x76,3 <= 1
0 <= x76,4 <= 1
0 <= x76,5 <= 1
0 <= x76,6 <= 1
0 <= x77,2 <= 1
0 <= x77,3 <= 1
0 <= x77,4 <= 1
0 <= x77,5 <= 1
0 <= x78,2 <= 1
0 <= x78,3 <= 1
0 <= x78,4 <= 1
0 <= x78,5 <= 1
0 <= x78,6 <= 1
0 <= x78,7 <= 1
0 <= x78,8 <= 1
0 <= x79,1 <= 1
0 <= x79,2 <= 1
0 <= x79,3 <= 1
0 <= x79,4 <= 1
0 <= x80,5 <= 1
0 <= x80,6 <= 1
0 <= x80,7 <= 1
0 <= x80,8 <= 1
0 <= x81,4 <= 1
0 <= x81,5 <= 1
0 <= x81,6 <= 1
0 <= x81,7 <= 1
0 <= x82,3 <= 1
0 <= x82,4 <= 1
0 <= x82,5 <= 1
0 <= x82,6 <= 1
0 <= x83,2 <= 1
0 <= x83,3 <= 1
0 <= x83,4 <= 1
0 <= x83,5 <= 1
0 <= x84,2 <= 1
0 <= x84,3 <= 1
0 <= x84,4 <= 1
0 <= x84,5 <= 1
0 <= x84,6 <= 1
0 <= x84,7 <= 1
0 <= x84,8 <= 1
0 <= x85,1 <= 1
0 <= x85,2 <= 1
0 <= x85,3 <= 1
0 <= x85,4 <= 1
0 <= x86,5 <= 1
0 <= x86,6 <= 1
0 <= x86,7 <= 1
0 <= x86,8 <= 1
0 <= x87,4 <= 1
0 <= x87,5 <= 1
0 <= x87,6 <= 1
0 <= x87,7 <= 1
0 <= x88,3 <= 1
0 <= x88,4 <= 1
0 <= x88,5 <= 1
0 <= x88,6 <= 1
0 <= x89,2 <= 1
0 <= x89,3 <= 1
0 <= x89,4 <= 1
0 <= x89,5 <= 1
0 <= x90,2 <= 1
0 <= x90,3 <= 1
0 <= x90,4 <= 1
0 <= x90,5 <= 1
0 <= x90,6 <= 1
0 <= x90,7 <= 1
0 <= x90,8 <= 1
0 <= x91,1 <= 1
0 <= x91,2 <= 1
0 <= x91,3 <= 1
0 <= x91,4 <= 1
0 <= x92,2 <= 1
0 <= x92,3 <= 1
0 <= x92,4 <= 1
0 <= x92,5 <= 1
0 <= x92,6 <= 1
0 <= x92,7 <= 1
0 <= x92,8 <= 1
0 <= x93,1 <= 1
0 <= x93,2 <= 1
0 <= x93,3 <= 1
0 <= x93,4 <= 1
0 <= x93,5 <= 1
0 <= x93,6 <= 1
0 <= x93,7 <= 1
0 <= x94,2 <= 1
0 <= x94,3 <= 1
0 <= x94,4 <= 1
0 <= x94,5 <= 1
0 <= x94,6 <= 1
0 <= x94,7 <= 1
0 <= x94,8 <= 1
0 <= x95,1 <= 1
0 <= x95,2 <= 1
0 <= x95,3 <= 1
0 <= x95,4 <= 1
0 <= x95,5 <= 1
0 <= x95,6 <= 1
0 <= x95,7 <= 1
0 <= x96,2 <= 1
0 <= x96,3 <= 1
0 <= x96,4 <= 1
0 <= x96,5 <= 1
0 <= x96,6 <= 1
0 <= x96,7 <= 1
0 <= x96,8 <= 1
0 <= x97,2 <= 1
0 <= x97,3 <= 1
0 <= x97,4 <= 1
0 <= x97,5 <= 1
0 <= x97,6 <= 1
0 <= x97,7 <= 1
0 <= x97,8 <= 1
0 <= x98,1 <= 1
0 <= x98,2 <= 1
0 <= x98,3 <= 1
0 <= x98,4 <= 1
0 <= x98,5 <= 1
0 <= x98,6 <= 1
0 <= x98,7 <= 1
0 <= x99,3 <= 1
0 <= x99,4 <= 1
0 <= x99,5 <= 1
0 <= x99,6 <= 1
0 <= x99,7 <= 1
0 <= x99,8 <= 1
0 <= x100,2 <= 1
0 <= x100,3 <= 1
0 <= x100,4 <= 1
0 <= x100,5 <= 1
0 <= x100,6 <= 1
0 <= x100,7 <= 1
0 <= x101,2 <= 1
0 <= x101,3 <= 1
0 <= x101,4 <= 1
0 <= x101,5 <= 1
0 <= x101,6 <= 1
0 <= x101,7 <= 1
0 <= x101,8 <= 1
0 <= x102,1 <= 1
0 <= x102,2 <= 1
0 <= x102,3 <= 1
0 <= x102,4 <= 1
0 <= x102,5 <= 1
0 <= x102,6 <= 1
0 <= x103,3 <= 1
0 <= x103,4 <= 1
0 <= x103,5 <= 1
0 <= x103,6 <= 1
0 <= x103,7 <= 1
0 <= x103,8 <= 1
0 <= x104,2 <= 1
0 <= x104,3 <= 1
0 <= x104,4 <= 1
0 <= x104,5 <= 1
0 <= x104,6 <= 1
0 <= x104,7 <= 1
0 <= x105,1 <= 1
0 <= x105,2 <= 1
0 <= x105,3 <= 1
0 <= x105,4 <= 1
0 <= x105,5 <= 1
0 <= x105,6 <= 1
M1 >= 1
M2 >= 1
Generals
x0,6
x0,7
x1,5
x1,6
x2,8
x3,7
x4,8
x5,7
x6,5
x7,4
x8,2
x8,3
x8,4
x8,5
x8,6
x8,7
x8,8
x9,1
x9,2
x9,3
x9,4
x9,5
x9,6
x9,7
x10,2
x10,3
x10,4
x10,5
x10,6
x10,7
x10,8
x11,1
x11,2
x11,3
x11,4
x11,5
x11,6
x11,7
x12,2
x12,3
x13,2
x13,3
x13,4
x13,5
x13,6
x13,7
x13,8
x14,1
x14,2
x15,3
x16,2
x17,2
x17,3
x17,4
x17,5
x17,6
x17,7
x17,8
x18,1
x19,3
x20,2
x21,2
x21,3
x21,4
x21,5
x21,6
x21,7
x21,8
x22,1
x23,3
x24,2
x25,2
x25,3
x25,4
x25,5
x25,6
x25,7
x25,8
x26,1
x27,2
x27,3
x27,4
x27,5
x28,2
x28,3
x28,4
x28,5
x28,6
x28,7
x28,8
x29,1
x29,2
x29,3
x29,4
x30,3
x30,4
x30,5
x31,2
x31,3
x31,4
x32,2
x32,3
x32,4
x32,5
x32,6
x32,7
x32,8
x33,1
x33,2
x33,3
x34,3
x34,4
x34,5
x35,2
x35,3
x35,4
x36,2
x36,3
x36,4
x36,5
x36,6
x36,7
x36,8
x37,1
x37,2
x37,3
x38,3
x38,4
x38,5
x39,2
x39,3
x39,4
x40,2
x40,3
x40,4
x40,5
x40,6
x40,7
x40,8
x41,1
x41,2
x41,3
x42,2
x42,3
x42,4
x42,5
x42,6
x42,7
x42,8
x43,1
x43,2
x43,3
x43,4
x43,5
x43,6
x43,7
x44,2
x44,3
x44,4
x44,5
x44,6
x44,7
x44,8
x45,1
x45,2
x45,3
x45,4
x45,5
x45,6
x45,7
x46,4
x46,5
x46,6
x46,7
x46,8
x47,3
x47,4
x47,5
x47,6
x47,7
x48,2
x48,3
x48,4
x48,5
x48,6
x49,2
x49,3
x49,4
x49,5
x49,6
x49,7
x49,8
x50,1
x50,2
x50,3
x50,4
x50,5
x51,5
x51,6
x51,7
x51,8
x52,4
x52,5
x52,6
x52,7
x53,3
x53,4
x53,5
x53,6
x54,2
x54,3
x54,4
x54,5
x55,2
x55,3
x55,4
x55,5
x55,6
x55,7
x55,8
x56,1
x56,2
x56,3
x56,4
x57,5
x57,6
x57,7
x57,8
x58,4
x58,5
x58,6
x58,7
x59,3
x59,4
x59,5
x59,6
x60,2
x60,3
x60,4
x60,5
x61,2
x61,3
x61,4
x61,5
x61,6
x61,7
x61,8
x62,1
x62,2
x62,3
x62,4
x63,5
x63,6
x63,7
x63,8
x64,4
x64,5
x64,6
x64,7
x65,3
x65,4
x65,5
x65,6
x66,2
x66,3
x66,4
x66,5
x67,2
x67,3
x67,4
x67,5
x67,6
x67,7
x67,8
x68,1
x68,2
x68,3
x68,4
x69,4
x69,5
x69,6
x69,7
x69,8
x70,3
x70,4
x70,5
x70,6
x70,7
x71,2
x71,3
x71,4
x71,5
x71,6
x72,2
x72,3
x72,4
x72,5
x72,6
x72,7
x72,8
x73,1
x73,2
x73,3
x73,4
x73,5
x74,5
x74,6
x74,7
x74,8
x75,4
x75,5
x75,6
x75,7
x76,3
x76,4
x76,5
x76,6
x77,2
x77,3
x77,4
x77,5
x78,2
x78,3
x78,4
x78,5
x78,6
x78,7
x78,8
x79,1
x79,2
x79,3
x79,4
x80,5
x80,6
x80,7
x80,8
x81,4
x81,5
x81,6
x81,7
x82,3
x82,4
x82,5
x82,6
x83,2
x83,3
x83,4
x83,5
x84,2
x84,3
x84,4
x84,5
x84,6
x84,7
x84,8
x85,1
x85,2
x85,3
x85,4
x86,5
x86,6
x86,7
x86,8
x87,4
x87,5
x87,6
x87,7
x88,3
x88,4
x88,5
x88,6
x89,2
x89,3
x89,4
x89,5
x90,2
x90,3
x90,4
x90,5
x90,6
x90,7
x90,8
x91,1
x91,2
x91,3
x91,4
x92,2
x92,3
x92,4
x92,5
x92,6
x92,7
x92,8
x93,1
x93,2
x93,3
x93,4
x93,5
x93,6
x93,7
x94,2
x94,3
x94,4
x94,5
x94,6
x94,7
x94,8
x95,1
x95,2
x95,3
x95,4
x95,5
x95,6
x95,7
x96,2
x96,3
x96,4
x96,5
x96,6
x96,7
x96,8
x97,2
x97,3
x97,4
x97,5
x97,6
x97,7
x97,8
x98,1
x98,2
x98,3
x98,4
x98,5
x98,6
x98,7
x99,3
x99,4
x99,5
x99,6
x99,7
x99,8
x100,2
x100,3
x100,4
x100,5
x100,6
x100,7
x101,2
x101,3
x101,4
x101,5
x101,6
x101,7
x101,8
x102,1
x102,2
x102,3
x102,4
x102,5
x102,6
x103,3
x103,4
x103,5
x103,6
x103,7
x103,8
x104,2
x104,3
x104,4
x104,5
x104,6
x104,7
x105,1
x105,2
x105,3
x105,4
x105,5
x105,6
M1
M2
End
